(set-logic QF_SLIA)
(declare-fun var0 () String)
(assert (str.in_re var0 (re.++ ((_ re.loop 16 147) (re.++ (re.union (str.to_re "a{A") (re.union (str.to_re "G") (re.union (str.to_re "mK") (str.to_re "f")))) (re.++ (re.union (str.to_re "e") (re.union (str.to_re "cid") (re.union (str.to_re "a") (str.to_re "gI")))) (re.++ (re.union (str.to_re "_=") (re.union (str.to_re "n") (re.union (str.to_re "x") (str.to_re "\\I")))) (re.union (str.to_re "j") (re.union (str.to_re "957") (re.union (str.to_re "y") (str.to_re "fVp")))))))) (re.++ ((_ re.loop 11 323) (re.++ (re.union (str.to_re "*") (re.union (str.to_re "g") (re.union (str.to_re "0=") (str.to_re "7Pk")))) (re.++ (re.union (str.to_re ">") (re.union (str.to_re "`{5") (re.union (str.to_re "'Jc") (str.to_re "H")))) (re.++ (re.union (str.to_re ";") (re.union (str.to_re "Y") (re.union (str.to_re ",n") (str.to_re "nu>")))) (re.union (str.to_re "D") (re.union (str.to_re "Y;N") (re.union (str.to_re "mXx") (str.to_re "u")))))))) (re.++ ((_ re.loop 17 558) (re.++ (re.union (str.to_re "z") (re.union (str.to_re "9I") (re.union (str.to_re "F") (str.to_re "Xo&")))) (re.++ (re.union (str.to_re "!i&") (re.union (str.to_re "I") (re.union (str.to_re "F$>") (str.to_re "QF:")))) (re.++ (re.union (str.to_re "@}") (re.union (str.to_re "~C,") (re.union (str.to_re "\u0022") (str.to_re "z#")))) (re.union (str.to_re "l") (re.union (str.to_re "Cd") (re.union (str.to_re "5qC") (str.to_re "%DO")))))))) ((_ re.loop 10 947) (re.++ (re.union (str.to_re "Yfs") (re.union (str.to_re "kS") (re.union (str.to_re "FX?") (str.to_re ";/Q")))) (re.++ (re.union (str.to_re "|E") (re.union (str.to_re "9") (re.union (str.to_re "]|Y") (str.to_re ";")))) (re.++ (re.union (str.to_re "Yt") (re.union (str.to_re "d|f") (re.union (str.to_re "2") (str.to_re "Ds6")))) (re.union (str.to_re "~Kv") (re.union (str.to_re "P3") (re.union (str.to_re "~") (str.to_re "A]")))))))))))))
(assert (not (str.in_re var0 (re.++ ((_ re.loop 6 41) (re.++ (re.union (str.to_re "|") (re.union (str.to_re "/5") (re.union (str.to_re "e\\.") (str.to_re "s")))) (re.++ (re.union (str.to_re "im") (re.union (str.to_re "{F") (re.union (str.to_re "uQ&") (str.to_re "P")))) (re.++ (re.union (str.to_re "}Q6") (re.union (str.to_re "HP'") (re.union (str.to_re "{SQ") (str.to_re "f")))) (re.union (str.to_re "eHF") (re.union (str.to_re ";>") (re.union (str.to_re "[") (str.to_re ".~I")))))))) (re.++ ((_ re.loop 19 832) (re.++ (re.union (str.to_re "4@G") (re.union (str.to_re "l1b") (re.union (str.to_re "dm") (str.to_re "M")))) (re.++ (re.union (str.to_re "I") (re.union (str.to_re "J") (re.union (str.to_re "K") (str.to_re "C'")))) (re.++ (re.union (str.to_re "a") (re.union (str.to_re "KM") (re.union (str.to_re "Q.#") (str.to_re "h5E")))) (re.union (str.to_re "3/\u0022") (re.union (str.to_re "I5v") (re.union (str.to_re "j96") (str.to_re "dl")))))))) (re.++ ((_ re.loop 10 605) (re.++ (re.union (str.to_re "`") (re.union (str.to_re "Bpg") (re.union (str.to_re "Aw") (str.to_re "7")))) (re.++ (re.union (str.to_re "9!") (re.union (str.to_re "l2V") (re.union (str.to_re "]'O") (str.to_re "?")))) (re.++ (re.union (str.to_re "]um") (re.union (str.to_re "^]I") (re.union (str.to_re "`V") (str.to_re "Gdx")))) (re.union (str.to_re "e/2") (re.union (str.to_re "o") (re.union (str.to_re "/@k") (str.to_re "~")))))))) ((_ re.loop 15 223) (re.++ (re.union (str.to_re "T") (re.union (str.to_re "W") (re.union (str.to_re "Bs") (str.to_re "f]")))) (re.++ (re.union (str.to_re ";V") (re.union (str.to_re "6") (re.union (str.to_re "{{") (str.to_re "s")))) (re.++ (re.union (str.to_re "&S") (re.union (str.to_re "=!") (re.union (str.to_re "/QJ") (str.to_re "HO")))) (re.union (str.to_re "f") (re.union (str.to_re "N(") (re.union (str.to_re "@Lo") (str.to_re "fb"))))))))))))))
(assert (not (str.in_re var0 (re.++ (re.* re.allchar) (re.++ (re.union (str.to_re "<") (re.union (str.to_re ">") (re.union (str.to_re "'") (re.union (str.to_re "\u0022") (str.to_re "&"))))) (re.* re.allchar))))))
(assert (<= 50 (str.len var0)))
(check-sat)
(get-model)
